log/Reading instance from file data/g07.dat
Number of nodes: 301
Number of edges: 3300
initialize CPLEX ... done.
Calling CPLEX solve ...
Version identifier: 12.10.0.0 | 2019-11-26 | 843d4de
CPXPARAM_Threads                                 1
CPXPARAM_TimeLimit                               3600
CPXPARAM_WorkMem                                 8192
Tried aggregator 1 time.
MIP Presolve eliminated 603 rows and 302 columns.
MIP Presolve modified 7800 coefficients.
Reduced MIP has 7203 rows, 6900 columns, and 38700 nonzeros.
Reduced MIP has 6600 binaries, 300 generals, 0 SOSs, and 0 indicators.
Presolve time = 0.03 sec. (26.37 ticks)
Probing time = 0.01 sec. (4.18 ticks)
Tried aggregator 1 time.
Detecting symmetries...
Reduced MIP has 7203 rows, 6900 columns, and 38700 nonzeros.
Reduced MIP has 6600 binaries, 300 generals, 0 SOSs, and 0 indicators.
Presolve time = 0.03 sec. (23.63 ticks)
Probing time = 0.01 sec. (3.69 ticks)
Clique table members: 9301.
MIP emphasis: balance optimality and feasibility.
MIP search method: dynamic search.
Parallel mode: none, using 1 thread.
Root relaxation solution time = 0.02 sec. (26.10 ticks)

        Nodes                                         Cuts/
   Node  Left     Objective  IInf  Best Integer    Best Bound    ItCnt     Gap

      0     0     2275.4371   168                   2275.4371      852         
      0     0     3336.1541   168                   Cuts: 406     1513         
      0     0     3801.5204   168                   Cuts: 262     1785         
      0     0     4166.1899   168                   Cuts: 272     2093         
      0     0     4289.4992   168                   Cuts: 146     2244         
      0     0     4364.9947   168                   Cuts: 132     2391         
Detecting symmetries...
      0     0     4380.0468   168                    Cuts: 91     2469         
      0     0     4404.1653   168                    Cuts: 50     2554         
      0     0     4430.5124   168                    Cuts: 80     2648         
      0     0     4445.3079   168                    Cuts: 66     2707         
      0     0     4453.3828   168                    Cuts: 38     2758         
      0     0     4460.2333   168                    Cuts: 39     2815         
      0     0     4460.8221   168                    Cuts: 51     2859         
      0     0     4464.0132   168                    Cuts: 52     2899         
      0     0     4465.0132   168                    Cuts: 36     2921         
      0     0     4466.0000   168                    Cuts: 17     2942         
      0     0     4466.0000   168                    Cuts: 26     2997         
      0     0     4466.0000   168                    Cuts: 33     3031         
      0     0     4466.0000   168                    Cuts: 54     3063         
      0     0     4466.2000   168                    Cuts: 16     3095         
      0     0     4469.0397   168                    Cuts: 56     3109         
      0     0     4472.0066   168                    Cuts: 20     3127         
      0     0     4472.5000   168                    Cuts: 19     3140         
Detecting symmetries...
      0     2     4472.5000    83                   4473.0000     3140         
Elapsed time = 2.07 sec. (2852.71 ticks, tree = 0.01 MB, solutions = 0)
     30    31     4573.9880    36                   4473.0000     3902         
     60    61     4577.3158     8                   4473.0000     4715         
     99   100     4596.2032    26                   4473.0000     5877         
    138   139     4635.8421    71                   4473.0000     7137         
    164   165     4644.4896    23                   4473.0000     8412         
    201   202     4705.1731    19                   4473.0000    10280         
*   220+  217                         4910.0000     4473.0000             8.90%
    231   228     4894.0000     5     4910.0000     4473.0000    11782    8.90%
*   280+  246                         4825.0000     4473.5598             7.28%
    282   250     4681.6111     6     4825.0000     4473.5598    12458    7.28%
    329   291     4474.3905   111     4825.0000     4475.7103    13189    7.24%

Performing restart 1

Repeating presolve.
Tried aggregator 1 time.
MIP Presolve eliminated 3625 rows and 3625 columns.
MIP Presolve modified 3502 coefficients.
Reduced MIP has 3578 rows, 3275 columns, and 14916 nonzeros.
Reduced MIP has 2975 binaries, 300 generals, 0 SOSs, and 0 indicators.
Presolve time = 0.04 sec. (23.93 ticks)
Tried aggregator 1 time.
MIP Presolve modified 373 coefficients.
Reduced MIP has 3577 rows, 3275 columns, and 14575 nonzeros.
Reduced MIP has 2975 binaries, 300 generals, 0 SOSs, and 0 indicators.
Presolve time = 0.01 sec. (12.55 ticks)
Represolve time = 0.09 sec. (63.92 ticks)
    477     0     4473.6581   148     4825.0000      Cuts: 21    16432    7.23%
    477     0     4479.0044   148     4825.0000      Cuts: 44    16476    7.17%
    477     0     4480.4204   148     4825.0000      Cuts: 42    16505    7.14%
    477     0     4493.0132   148     4825.0000      Cuts: 36    16536    6.88%
    477     0     4494.1887   148     4825.0000      Cuts: 36    16560    6.86%
    477     0     4500.0000   148     4825.0000      Cuts: 28    16582    6.74%
    477     0     4501.0000   148     4825.0000      Cuts: 35    16599    6.72%
    477     0     4501.0000   148     4825.0000      Cuts: 34    16607    6.72%
    477     0     4501.0000   148     4825.0000      Cuts: 38    16617    6.72%
    477     0     4501.0000   148     4825.0000      Cuts: 13    16625    6.72%
    477     0     4501.0000   148     4825.0000      Cuts: 19    16629    6.72%
    477     0     4501.0000   148     4825.0000       Cuts: 3    16632    6.72%
*   477+    0                         4718.0000     4501.0000             4.60%
    477     2     4501.0000    75     4718.0000     4501.0000    16632    4.60%
Elapsed time = 5.10 sec. (6658.59 ticks, tree = 0.01 MB, solutions = 3)
*   523    42      integral     0     4596.0000     4501.0000    17102    2.07%
    527    45     4501.7947    29     4596.0000     4501.3600    17152    2.06%
    591    95     4522.1126    14     4596.0000     4502.7748    17874    2.03%
*   623+   63                         4535.0000     4505.1589             0.66%
*   681    72      integral     0     4534.0000     4506.8626    18974    0.60%
    706    73     4527.3576    45     4534.0000     4509.0000    19701    0.55%
    820   108     4532.2318    19     4534.0000     4513.0000    21455    0.46%
   1002   143     4522.0000    14     4534.0000     4519.0000    23713    0.33%
   1196   119     4530.3311     8     4534.0000     4524.3311    26347    0.21%
   1444    30        cutoff           4534.0000     4531.5099    29009    0.05%

GUB cover cuts applied:  1
Clique cuts applied:  276
Cover cuts applied:  43
Implied bound cuts applied:  85
Flow cuts applied:  37
Mixed integer rounding cuts applied:  110
Zero-half cuts applied:  38
Lift and project cuts applied:  2
Gomory fractional cuts applied:  83

Root node processing (before b&c):
  Real time             =    2.05 sec. (2840.79 ticks)
Sequential b&c:
  Real time             =    9.10 sec. (10626.96 ticks)
                          ------------
Total (root+branch&cut) =   11.16 sec. (13467.74 ticks)
SOLUTION:

x(0,86)[0..1]  = 1
x(1,63)[0..1]  = 1
x(2,119)[0..1]  = 1
x(2,293)[0..1]  = 1
x(4,100)[0..1]  = 1
x(4,262)[0..1]  = 1
x(5,210)[0..1]  = 1
x(6,169)[0..1]  = 1
x(9,27)[0..1]  = 1
x(10,44)[0..1]  = 1
x(12,232)[0..1]  = 1
x(15,200)[0..1]  = 1
x(17,279)[0..1]  = 1
x(18,211)[0..1]  = 1
x(18,71)[0..1]  = 1
x(19,77)[0..1]  = 1
x(33,172)[0..1]  = 1
x(34,85)[0..1]  = 1
x(34,89)[0..1]  = 1
x(39,170)[0..1]  = 1
x(44,260)[0..1]  = 1
x(44,254)[0..1]  = 1
x(50,255)[0..1]  = 1
x(61,182)[0..1]  = 1
x(61,276)[0..1]  = 1
x(65,264)[0..1]  = 1
x(72,103)[0..1]  = 1
x(74,87)[0..1]  = 1
x(75,275)[0..1]  = 1
x(77,106)[0..1]  = 1
x(83,287)[0..1]  = 1
x(84,158)[0..1]  = 1
x(85,126)[0..1]  = 1
x(85,134)[0..1]  = 1
x(86,268)[0..1]  = 1
x(87,141)[0..1]  = 1
x(91,135)[0..1]  = 1
x(99,179)[0..1]  = 1
x(100,222)[0..1]  = 1
x(103,111)[0..1]  = 1
x(103,300)[0..1]  = 1
x(125,128)[0..1]  = 1
x(125,185)[0..1]  = 1
x(125,286)[0..1]  = 1
x(128,252)[0..1]  = 1
x(130,270)[0..1]  = 1
x(134,167)[0..1]  = 1
x(135,217)[0..1]  = 1
x(141,244)[0..1]  = 1
x(141,235)[0..1]  = 1
x(147,234)[0..1]  = 1
x(155,213)[0..1]  = 1
x(158,195)[0..1]  = 1
x(166,251)[0..1]  = 1
x(171,189)[0..1]  = 1
x(171,225)[0..1]  = 1
x(171,248)[0..1]  = 1
x(179,278)[0..1]  = 1
x(183,299)[0..1]  = 1
x(196,201)[0..1]  = 1
x(200,224)[0..1]  = 1
x(205,239)[0..1]  = 1
x(207,282)[0..1]  = 1
x(210,229)[0..1]  = 1
x(212,290)[0..1]  = 1
x(225,263)[0..1]  = 1
x(225,269)[0..1]  = 1
x(232,261)[0..1]  = 1
x(235,256)[0..1]  = 1
x(74,1)[0..1]  = 1
x(232,2)[0..1]  = 1
x(157,4)[0..1]  = 1
x(44,5)[0..1]  = 1
x(232,6)[0..1]  = 1
x(211,7)[0..1]  = 1
x(18,8)[0..1]  = 1
x(15,9)[0..1]  = 1
x(86,10)[0..1]  = 1
x(171,12)[0..1]  = 1
x(192,14)[0..1]  = 1
x(106,15)[0..1]  = 1
x(300,17)[0..1]  = 1
x(131,18)[0..1]  = 1
x(118,19)[0..1]  = 1
x(237,21)[0..1]  = 1
x(105,22)[0..1]  = 1
x(171,23)[0..1]  = 1
x(33,29)[0..1]  = 1
x(77,31)[0..1]  = 1
x(229,33)[0..1]  = 1
x(285,34)[0..1]  = 1
x(262,39)[0..1]  = 1
x(235,41)[0..1]  = 1
x(234,42)[0..1]  = 1
x(249,49)[0..1]  = 1
x(196,50)[0..1]  = 1
x(213,52)[0..1]  = 1
x(234,54)[0..1]  = 1
x(264,61)[0..1]  = 1
x(276,62)[0..1]  = 1
x(268,72)[0..1]  = 1
x(203,73)[0..1]  = 1
x(136,74)[0..1]  = 1
x(210,76)[0..1]  = 1
x(292,78)[0..1]  = 1
x(147,83)[0..1]  = 1
x(210,84)[0..1]  = 1
x(147,91)[0..1]  = 1
x(126,99)[0..1]  = 1
x(203,102)[0..1]  = 1
x(291,105)[0..1]  = 1
x(146,118)[0..1]  = 1
x(173,123)[0..1]  = 1
x(244,125)[0..1]  = 1
x(177,130)[0..1]  = 1
x(205,131)[0..1]  = 1
x(287,136)[0..1]  = 1
x(210,140)[0..1]  = 1
x(157,146)[0..1]  = 1
x(263,147)[0..1]  = 1
x(254,149)[0..1]  = 1
x(300,155)[0..1]  = 1
x(252,157)[0..1]  = 1
x(292,160)[0..1]  = 1
x(291,164)[0..1]  = 1
x(200,166)[0..1]  = 1
x(217,168)[0..1]  = 1
x(260,171)[0..1]  = 1
x(244,173)[0..1]  = 1
x(263,177)[0..1]  = 1
x(237,183)[0..1]  = 1
x(211,186)[0..1]  = 1
x(278,192)[0..1]  = 1
x(248,196)[0..1]  = 1
x(276,197)[0..1]  = 1
x(287,198)[0..1]  = 1
x(270,203)[0..1]  = 1
x(260,204)[0..1]  = 1
x(224,205)[0..1]  = 1
x(225,207)[0..1]  = 1
x(217,212)[0..1]  = 1
x(282,219)[0..1]  = 1
x(282,237)[0..1]  = 1
x(299,249)[0..1]  = 1
x(287,285)[0..1]  = 1
x(299,291)[0..1]  = 1
x(300,292)[0..1]  = 1
z(1)[0..1]  = 1
z(2)[0..1]  = 1
z(4)[0..1]  = 1
z(5)[0..1]  = 1
z(6)[0..1]  = 1
z(7)[0..1]  = 1
z(8)[0..1]  = 1
z(9)[0..1]  = 1
z(10)[0..1]  = 1
z(12)[0..1]  = 1
z(14)[0..1]  = 1
z(15)[0..1]  = 1
z(17)[0..1]  = 1
z(18)[0..1]  = 1
z(19)[0..1]  = 1
z(21)[0..1]  = 1
z(22)[0..1]  = 1
z(23)[0..1]  = 1
z(27)[0..1]  = 1
z(29)[0..1]  = 1
z(31)[0..1]  = 1
z(33)[0..1]  = 1
z(34)[0..1]  = 1
z(39)[0..1]  = 1
z(41)[0..1]  = 1
z(42)[0..1]  = 1
z(44)[0..1]  = 1
z(49)[0..1]  = 1
z(50)[0..1]  = 1
z(52)[0..1]  = 1
z(54)[0..1]  = 1
z(61)[0..1]  = 1
z(62)[0..1]  = 1
z(63)[0..1]  = 1
z(65)[0..1]  = 1
z(71)[0..1]  = 1
z(72)[0..1]  = 1
z(73)[0..1]  = 1
z(74)[0..1]  = 1
z(75)[0..1]  = 1
z(76)[0..1]  = 1
z(77)[0..1]  = 1
z(78)[0..1]  = 1
z(83)[0..1]  = 1
z(84)[0..1]  = 1
z(85)[0..1]  = 1
z(86)[0..1]  = 1
z(87)[0..1]  = 1
z(89)[0..1]  = 1
z(91)[0..1]  = 1
z(99)[0..1]  = 1
z(100)[0..1]  = 1
z(102)[0..1]  = 1
z(103)[0..1]  = 1
z(105)[0..1]  = 1
z(106)[0..1]  = 1
z(111)[0..1]  = 1
z(118)[0..1]  = 1
z(119)[0..1]  = 1
z(123)[0..1]  = 1
z(125)[0..1]  = 1
z(126)[0..1]  = 1
z(128)[0..1]  = 1
z(130)[0..1]  = 1
z(131)[0..1]  = 1
z(134)[0..1]  = 1
z(135)[0..1]  = 1
z(136)[0..1]  = 1
z(140)[0..1]  = 1
z(141)[0..1]  = 1
z(146)[0..1]  = 1
z(147)[0..1]  = 1
z(149)[0..1]  = 1
z(155)[0..1]  = 1
z(157)[0..1]  = 1
z(158)[0..1]  = 1
z(160)[0..1]  = 1
z(164)[0..1]  = 1
z(166)[0..1]  = 1
z(167)[0..1]  = 1
z(168)[0..1]  = 1
z(169)[0..1]  = 1
z(170)[0..1]  = 1
z(171)[0..1]  = 1
z(172)[0..1]  = 1
z(173)[0..1]  = 1
z(177)[0..1]  = 1
z(179)[0..1]  = 1
z(182)[0..1]  = 1
z(183)[0..1]  = 1
z(185)[0..1]  = 1
z(186)[0..1]  = 1
z(189)[0..1]  = 1
z(192)[0..1]  = 1
z(195)[0..1]  = 1
z(196)[0..1]  = 1
z(197)[0..1]  = 1
z(198)[0..1]  = 1
z(200)[0..1]  = 1
z(201)[0..1]  = 1
z(203)[0..1]  = 1
z(204)[0..1]  = 1
z(205)[0..1]  = 1
z(207)[0..1]  = 1
z(210)[0..1]  = 1
z(211)[0..1]  = 1
z(212)[0..1]  = 1
z(213)[0..1]  = 1
z(217)[0..1]  = 1
z(219)[0..1]  = 1
z(222)[0..1]  = 1
z(224)[0..1]  = 1
z(225)[0..1]  = 1
z(229)[0..1]  = 1
z(232)[0..1]  = 1
z(234)[0..1]  = 1
z(235)[0..1]  = 1
z(237)[0..1]  = 1
z(239)[0..1]  = 1
z(244)[0..1]  = 1
z(248)[0..1]  = 1
z(249)[0..1]  = 1
z(251)[0..1]  = 1
z(252)[0..1]  = 1
z(254)[0..1]  = 1
z(255)[0..1]  = 1
z(256)[0..1]  = 1
z(260)[0..1]  = 1
z(261)[0..1]  = 1
z(262)[0..1]  = 1
z(263)[0..1]  = 1
z(264)[0..1]  = 1
z(268)[0..1]  = 1
z(269)[0..1]  = 1
z(270)[0..1]  = 1
z(275)[0..1]  = 1
z(276)[0..1]  = 1
z(278)[0..1]  = 1
z(279)[0..1]  = 1
z(282)[0..1]  = 1
z(285)[0..1]  = 1
z(286)[0..1]  = 1
z(287)[0..1]  = 1
z(290)[0..1]  = 1
z(291)[0..1]  = 1
z(292)[0..1]  = 1
z(293)[0..1]  = 1
z(299)[0..1]  = 1
z(300)[0..1]  = 1


CPLEX finished.

CPLEX status: Optimal
Branch-and-Bound nodes: 1485
Objective value: 4534
CPU time: 11.17

